/*********************************************
 * OPL 22.1.0.0 Data
 * Author: yedhukrishna
 * Creation Date: May 16, 2022 at 5:14:52 PM
 *********************************************/

 LOCATIONS = { "1", "2", "3", "4", "5" };

P = 3 ;
N = 5 ;

opening_cost = [ 5, 2, 12, 6, 20 ];

capacity = [ 2, 3, 5, 3, 8 ];

connection_cost = [ [ 1, 2, 1.4, 1.4, 1 ], 
					[2, 1.5, 1.4, 1, 0.8 ], 
					[ 1.4, 1.4, 1.2, 0.8, 1.2 ], 
					[ 1.4, 1, 0.8, 1.2, 1.1 ], 
					[ 1, 0.8, 1.2, 1.1, 1.4 ] ];